Traveling Salesman Problem/TSP_generados/Aleatorio1620390935_9.tsp
NAME: Aleatorio1620390935_9.tsp
COMMENT: Randomly generated scenario
TYPE: TSP
DIMENSION: 9
EDGE_WEIGHT_TYPE: ATT
NODE_COORD_SECTION
1 24.21 18.6
2 24.51 0.1
3 39.01 34.8
4 8.46 42.66
5 41.35 10.16
6 47.07 25.59
7 49.06 25.06
8 37.34 13.92
9 32.33 16.71
