Traveling Salesman Problem/TSP_generados/Aleatorio1620390935_9.opt.tour
NAME: Aleatorio1620390935_9.opt.tour
COMMENT: Optimal solution for Aleatorio1620390935_9 (139.4690752131468)
TYPE: TOUR
DIMENSION: 9
TOUR_SECTION
1 2 9 8 5 7 6 3 4
-1
EOF
